unsat
((set-logic NIA)
(declare-fun z!1 () Int)
(declare-fun y!2 () Int)
(declare-fun x!3 () Int)
(declare-fun n!0 () Int)
(proof
(let ((?x1297 (* z!1 z!1)))
 (let ((?x1083 (* (- 12) y!2)))
 (let ((?x802 (* (- 6) z!1)))
 (let ((?x283 (* z00 z00)))
 (let ((?x284 (* (- 1) ?x283)))
 (let ((?x43 (* 12 y00)))
 (let ((?x49 (* 6 z00)))
 (let ((?x382 (+ ?x49 ?x43 ?x284 ?x802 ?x1083 ?x1297)))
 (let (($x701 (<= ?x382 0)))
 (let (($x863 (= ?x382 0)))
 (let ((?x857 (+ y!2 x!3)))
 (let ((?x909 (+ z!1 y!2)))
 (let ((?x549 (+ 6 z!1)))
 (let ((?x1195 (+ 1 n!0)))
 (let ((?x558 (* ?x1195 ?x1195 ?x1195 ?x1195 ?x1195 ?x549 ?x549 ?x549 ?x549 ?x549 ?x549 ?x549 ?x549 ?x549 ?x909 ?x909 ?x909 ?x909 ?x909 ?x909 ?x909 ?x909 ?x857 ?x857 ?x857 ?x857 ?x382)))
 (let (($x848 (= ?x558 0)))
 (let (($x1233 (not $x848)))
 (let ((?x1209 (* 108 (* x00 x00))))
 (let ((?x1106 (* 2 (* z00 z00 z00 x00))))
 (let ((?x1102 (* z00 z00 z00 y00)))
 (let ((?x1012 (* (- 36) (* z00 y00 x00))))
 (let ((?x897 (* 16 (* y00 y00 y00))))
 (let ((?x811 (* z00 z00 x00)))
 (let ((?x1062 (* (- 18) ?x811)))
 (let ((?x1070 (* 108 (* x!3 x!3))))
 (let ((?x688 (* y!2 y!2)))
 (let ((?x613 (* 24 ?x688)))
 (let ((?x683 (* (- 1) (* z00 z00 y00 y00))))
 (let ((?x625 (* z00 z00 y00)))
 (let ((?x1163 (* (- 10) ?x625)))
 (let ((?x600 (* z00 y00 y00)))
 (let ((?x635 (* (- 12) ?x600)))
 (let ((?x491 (* y00 y00)))
 (let ((?x962 (* 96 ?x491)))
 (let ((?x461 (* z00 x00)))
 (let ((?x379 (* 36 ?x461)))
 (let ((?x424 (* z00 y00)))
 (let ((?x789 (* 24 ?x424)))
 (let ((?x371 (* y00 x00)))
 (let ((?x362 (* 216 ?x371)))
 (let ((?x1271 (* (- 4) (* y!2 y!2 y!2))))
 (let ((?x676 (+ (* 108 (* y!2 x!3)) ?x1271 (* (- 24) (* z00 y!2)) ?x362 ?x789 ?x379 (* 18 (* z00 y00 y!2)) ?x962 (* 36 (* z00 y00 x!3)) (* 10 (* z00 z00 y!2)) (* (- 216) (* x00 x!3)) (* (- 2) (* z00 z00 z00 x!3)) ?x635 (* (- 108) (* x00 y!2)) ?x1163 (* (- 6) (* z00 y!2 y!2)) ?x683 ?x613 (* (- 1) (* z00 z00 z00 y!2)) ?x1070 ?x1062 (* (- 36) (* z00 x!3)) (* (- 216) (* y00 x!3)) ?x897 (* (- 120) (* y00 y!2)) (* z00 z00 y!2 y!2) ?x1012 (* 18 (* z00 z00 x!3)) ?x1102 ?x1106 ?x1209 (* (- 12) (* y00 y!2 y!2)))))
 (let ((?x882 (* (- 108) x!3)))
 (let ((?x439 (* (- 72) y!2)))
 (let ((?x1316 (* (- 18) (* x00 z!1))))
 (let ((?x1322 (* 18 (* z!1 x!3))))
 (let ((?x681 (* z!1 y!2)))
 (let ((?x1312 (* 12 ?x681)))
 (let ((?x695 (* 36 ?x491)))
 (let ((?x486 (* z00 y00 y!2)))
 (let ((?x540 (* 6 ?x424)))
 (let ((?x302 (* y00 z!1)))
 (let ((?x1196 (* (- 12) ?x302)))
 (let ((?x74 (* 108 x00)))
 (let ((?x67 (* 72 y00)))
 (let ((?x815 (+ ?x67 ?x74 (* 18 (* y!2 x!3)) ?x1196 (* (- 6) (* z00 y!2)) (* 18 ?x371) (* (- 1) (* z!1 y!2 y!2)) ?x540 ?x486 ?x695 (* 2 (* y00 y00 z!1)) (* 3 (* z00 z00 y!2)) ?x600 (* (- 18) (* x00 y!2)) (* (- 3) ?x625) (* (- 2) (* z00 y!2 y!2)) (* (- 1) (* y00 z!1 y!2)) ?x1312 (* (- 3) ?x811) (* (- 18) (* y00 x!3)) ?x1322 (* (- 36) (* y00 y!2)) (* (- 3) (* z00 x00 z!1)) ?x1316 (* 3 (* z00 z00 x!3)) ?x439 (* 3 (* z00 z!1 x!3)) ?x882)))
 (let ((?x554 (* z00 z00 y!2)))
 (let ((?x1364 (* 24 ?x491)))
 (let ((?x699 (* (- 6) ?x424)))
 (let ((?x1323 (+ ?x67 ?x74 ?x1196 (* 6 (* z00 y!2)) ?x699 (* (- 18) ?x461) ?x1364 ?x554 (* (- 1) ?x625) ?x1312 (* (- 12) ?x688) (* z00 y00 z!1) (* (- 1) (* z00 z!1 y!2)) (* 18 (* z00 x!3)) ?x1322 (* (- 12) (* y00 y!2)) ?x1316 ?x439 ?x882)))
 (let ((?x1132 (* (- 6) ?x283)))
 (let ((?x55 (* z00 z00 z00)))
 (let ((?x1007 (+ ?x67 ?x55 ?x74 ?x1132 (* 12 ?x302) (* 6 (* z00 z!1)) (* (- 18) ?x424) (* 6 ?x681) (* (- 1) (* z00 z00 z!1)) ?x439 ?x882)))
 (let (($x1232 (and (= (+ z00 (* (- 6) n00) (* (- 1) z!1) (* 6 n!0)) 0) $x863 (= ?x1007 0) (= ?x1323 0) (= ?x815 0) (= ?x676 0) $x1233)))
 (let ((?x585 (+ x!3 y!2)))
 (let ((?x579 (+ y!2 z!1)))
 (let ((?x1135 (* ?x1195 ?x1195 ?x1195 ?x1195 ?x1195 ?x549 ?x549 ?x549 ?x549 ?x549 ?x549 ?x549 ?x549 ?x549 ?x579 ?x579 ?x579 ?x579 ?x579 ?x579 ?x579 ?x579 ?x585 ?x585 ?x585 ?x585 (+ ?x1083 ?x802 ?x49 ?x43 ?x1297 ?x284))))
 (let ((?x741 (+ (* 10 (* y!2 z00 z00)) (* y!2 y!2 z00 z00) (* (- 1) (* y!2 z00 z00 z00)) ?x362 (* (- 2) (* x!3 z00 z00 z00)) (* 108 (* x!3 y!2)) ?x789 ?x379 ?x613 ?x962 (* (- 120) (* y!2 y00)) (* 18 (* x!3 z00 z00)) (* (- 24) (* y!2 z00)) ?x635 ?x1163 (* (- 36) (* x!3 z00)) (* 18 (* y!2 z00 y00)) ?x683 ?x1070 ?x1271 (* (- 6) (* y!2 y!2 z00)) (* (- 108) (* y!2 x00)) ?x1062 (* (- 216) (* x!3 y00)) ?x897 (* (- 12) (* y!2 y!2 y00)) ?x1012 (* (- 216) (* x!3 x00)) ?x1102 ?x1106 (* 36 (* x!3 z00 y00)) ?x1209)))
 (let ((?x812 (* 3 ?x811)))
 (let ((?x874 (* 3 ?x625)))
 (let ((?x607 (* (- 1) ?x600)))
 (let ((?x1292 (* 18 (* z!1 x00))))
 (let ((?x794 (* (- 36) ?x491)))
 (let ((?x873 (* z!1 y00)))
 (let ((?x716 (* 12 ?x873)))
 (let ((?x994 (* (- 18) (* x!3 z!1))))
 (let ((?x372 (* (- 18) ?x371)))
 (let ((?x671 (* y!2 z!1)))
 (let ((?x460 (* (- 12) ?x671)))
 (let ((?x503 (* (- 108) x00)))
 (let ((?x446 (* (- 72) y00)))
 (let ((?x470 (* 72 y!2)))
 (let ((?x333 (* 108 x!3)))
 (let ((?x377 (+ ?x333 ?x470 ?x446 ?x503 (* (- 3) (* y!2 z00 z00)) (* y!2 y!2 z!1) ?x460 ?x372 (* (- 18) (* x!3 y!2)) ?x994 ?x716 ?x699 ?x794 ?x1292 (* 36 (* y!2 y00)) (* (- 3) (* x!3 z00 z00)) (* 6 (* y!2 z00)) ?x607 ?x874 (* 3 (* z!1 z00 x00)) (* (- 1) (* y!2 z00 y00)) (* (- 3) (* x!3 z!1 z00)) (* 2 (* y!2 y!2 z00)) (* 18 (* y!2 x00)) ?x812 (* 18 (* x!3 y00)) (* y!2 z!1 y00) (* (- 2) (* z!1 y00 y00)))))
 (let ((?x520 (* (- 24) ?x491)))
 (let ((?x462 (* 18 ?x461)))
 (let ((?x324 (+ ?x333 ?x470 ?x446 ?x503 (* y!2 z!1 z00) (* (- 1) (* y!2 z00 z00)) (* (- 1) (* z!1 z00 y00)) ?x460 ?x994 ?x716 ?x540 ?x462 (* 12 ?x688) ?x520 ?x1292 (* 12 (* y!2 y00)) (* (- 6) (* y!2 z00)) ?x625 (* (- 18) (* x!3 z00)))))
 (let ((?x425 (* 18 ?x424)))
 (let ((?x387 (* 6 ?x283)))
 (let ((?x376 (* (- 1) ?x55)))
 (let ((?x390 (+ ?x333 ?x470 ?x446 ?x376 ?x503 (* z!1 z00 z00) ?x387 (* (- 6) ?x671) (* (- 12) ?x873) ?x425 (* (- 6) (* z!1 z00)))))
 (let ((?x354 (* (- 12) y00)))
 (let ((?x353 (* (- 6) z00)))
 (let (($x332 (= (+ (* 12 y!2) (* 6 z!1) ?x353 ?x354 (* (- 1) ?x1297) ?x283) 0)))
 (let (($x588 (and (= (+ z!1 (* (- 6) n!0) (* (- 1) z00) (* 6 n00)) 0) $x332 (= ?x390 0) (= ?x324 0) (= ?x377 0) (= ?x741 0) (not (= ?x1135 0)))))
 (let (($x577 (exists ((x Int) (y Int) (z Int) (n Int) )(! (let ((?x283 (* z00 z00)))
 (let ((?x284 (* (- 1) ?x283)))
 (let ((?x50 (* z z)))
 (let ((?x43 (* 12 y00)))
 (let ((?x49 (* 6 z00)))
 (let ((?x329 (* (- 6) z)))
 (let ((?x307 (* (- 12) y)))
 (let ((?x345 (+ ?x307 ?x329 ?x49 ?x43 ?x50 ?x284)))
 (let ((?x224 (+ x y)))
 (let ((?x215 (+ y z)))
 (let ((?x672 (+ 6 z)))
 (let ((?x936 (+ 1 n)))
 (let ((?x622 (* ?x936 ?x936 ?x936 ?x936 ?x936 ?x672 ?x672 ?x672 ?x672 ?x672 ?x672 ?x672 ?x672 ?x672 ?x215 ?x215 ?x215 ?x215 ?x215 ?x215 ?x215 ?x215 ?x224 ?x224 ?x224 ?x224 ?x345)))
 (let ((?x1209 (* 108 (* x00 x00))))
 (let ((?x1106 (* 2 (* z00 z00 z00 x00))))
 (let ((?x1102 (* z00 z00 z00 y00)))
 (let ((?x1012 (* (- 36) (* z00 y00 x00))))
 (let ((?x897 (* 16 (* y00 y00 y00))))
 (let ((?x811 (* z00 z00 x00)))
 (let ((?x1062 (* (- 18) ?x811)))
 (let ((?x767 (* (- 4) (* y y y))))
 (let ((?x715 (* 108 (* x x))))
 (let ((?x683 (* (- 1) (* z00 z00 y00 y00))))
 (let ((?x625 (* z00 z00 y00)))
 (let ((?x1163 (* (- 10) ?x625)))
 (let ((?x600 (* z00 y00 y00)))
 (let ((?x635 (* (- 12) ?x600)))
 (let ((?x491 (* y00 y00)))
 (let ((?x962 (* 96 ?x491)))
 (let ((?x465 (* y y)))
 (let ((?x710 (* 24 ?x465)))
 (let ((?x461 (* z00 x00)))
 (let ((?x379 (* 36 ?x461)))
 (let ((?x424 (* z00 y00)))
 (let ((?x789 (* 24 ?x424)))
 (let ((?x371 (* y00 x00)))
 (let ((?x362 (* 216 ?x371)))
 (let ((?x201 (* y y z00 z00)))
 (let ((?x1229 (+ (* 10 (* y z00 z00)) ?x201 (* (- 1) (* y z00 z00 z00)) ?x362 (* (- 2) (* x z00 z00 z00)) (* 108 (* x y)) ?x789 ?x379 ?x710 ?x962 (* (- 120) (* y y00)) (* 18 (* x z00 z00)) (* (- 24) (* y z00)) ?x635 ?x1163 (* (- 36) (* x z00)) (* 18 (* y z00 y00)) ?x683 ?x715 ?x767 (* (- 6) (* y y z00)) (* (- 108) (* y x00)) ?x1062 (* (- 216) (* x y00)) ?x897 (* (- 12) (* y y y00)) ?x1012 (* (- 216) (* x x00)) ?x1102 ?x1106 (* 36 (* x z00 y00)) ?x1209)))
 (let (($x1234 (= ?x1229 0)))
 (let ((?x812 (* 3 ?x811)))
 (let ((?x874 (* 3 ?x625)))
 (let ((?x607 (* (- 1) ?x600)))
 (let ((?x537 (* 18 (* z x00))))
 (let ((?x794 (* (- 36) ?x491)))
 (let ((?x699 (* (- 6) ?x424)))
 (let ((?x398 (* z y00)))
 (let ((?x399 (* 12 ?x398)))
 (let ((?x432 (* (- 18) (* x z))))
 (let ((?x372 (* (- 18) ?x371)))
 (let ((?x367 (* y z)))
 (let ((?x391 (* (- 12) ?x367)))
 (let ((?x135 (* y y z)))
 (let ((?x503 (* (- 108) x00)))
 (let ((?x446 (* (- 72) y00)))
 (let ((?x71 (* 72 y)))
 (let ((?x64 (* 108 x)))
 (let ((?x930 (+ ?x64 ?x71 ?x446 ?x503 (* (- 3) (* y z00 z00)) ?x135 ?x391 ?x372 (* (- 18) (* x y)) ?x432 ?x399 ?x699 ?x794 ?x537 (* 36 (* y y00)) (* (- 3) (* x z00 z00)) (* 6 (* y z00)) ?x607 ?x874 (* 3 (* z z00 x00)) (* (- 1) (* y z00 y00)) (* (- 3) (* x z z00)) (* 2 (* y y z00)) (* 18 (* y x00)) ?x812 (* 18 (* x y00)) (* y z y00) (* (- 2) (* z y00 y00)))))
 (let (($x937 (= ?x930 0)))
 (let ((?x520 (* (- 24) ?x491)))
 (let ((?x468 (* 12 ?x465)))
 (let ((?x462 (* 18 ?x461)))
 (let ((?x540 (* 6 ?x424)))
 (let ((?x103 (* y z z00)))
 (let ((?x679 (+ ?x64 ?x71 ?x446 ?x503 ?x103 (* (- 1) (* y z00 z00)) (* (- 1) (* z z00 y00)) ?x391 ?x432 ?x399 ?x540 ?x462 ?x468 ?x520 ?x537 (* 12 (* y y00)) (* (- 6) (* y z00)) ?x625 (* (- 18) (* x z00)))))
 (let (($x684 (= ?x679 0)))
 (let ((?x425 (* 18 ?x424)))
 (let ((?x387 (* 6 ?x283)))
 (let ((?x76 (* z z00 z00)))
 (let ((?x55 (* z00 z00 z00)))
 (let ((?x376 (* (- 1) ?x55)))
 (let ((?x519 (+ ?x64 ?x71 ?x446 ?x376 ?x503 ?x76 ?x387 (* (- 6) ?x367) (* (- 12) ?x398) ?x425 (* (- 6) (* z z00)))))
 (let (($x524 (= ?x519 0)))
 (let ((?x355 (* (- 1) ?x50)))
 (let ((?x354 (* (- 12) y00)))
 (let ((?x353 (* (- 6) z00)))
 (let ((?x46 (* 6 z)))
 (let ((?x45 (* 12 y)))
 (let (($x357 (= (+ ?x45 ?x46 ?x353 ?x354 ?x355 ?x283) 0)))
 (let (($x275 (= (+ z (* (- 6) n) (* (- 1) z00) (* 6 n00)) 0)))
 (and $x275 $x357 $x524 $x684 $x937 $x1234 (not (= ?x622 0))))))))))))))))))))))))))))))))))))))))))))))))))))))))))))))))))))))))))))))))))) :qid k!38))
 ))
 (let (($x236 (exists ((x Int) (y Int) (z Int) (n Int) )(! (let ((?x49 (* 6 z00)))
 (let ((?x307 (* (- 12) y)))
 (let ((?x43 (* 12 y00)))
 (let ((?x283 (* z00 z00)))
 (let ((?x284 (* (- 1) ?x283)))
 (let ((?x1067 (+ (- 36) ?x284 ?x43 ?x307 (* (- 18) z) ?x49 (* (+ 6 z) (+ 6 z)))))
 (let ((?x224 (+ x y)))
 (let ((?x215 (+ y z)))
 (let ((?x672 (+ 6 z)))
 (let ((?x936 (+ 1 n)))
 (let ((?x933 (* ?x936 ?x936 ?x936 ?x936 ?x936 ?x672 ?x672 ?x672 ?x672 ?x672 ?x672 ?x672 ?x672 ?x672 ?x215 ?x215 ?x215 ?x215 ?x215 ?x215 ?x215 ?x215 ?x224 ?x224 ?x224 ?x224 ?x1067)))
 (let (($x1068 (not (= ?x933 0))))
 (let ((?x1209 (* 108 (* x00 x00))))
 (let ((?x196 (* y00 z00 z00 z00)))
 (let ((?x491 (* y00 y00)))
 (let ((?x962 (* 96 ?x491)))
 (let ((?x897 (* 16 (* y00 y00 y00))))
 (let ((?x767 (* (- 4) (* y y y))))
 (let ((?x715 (* 108 (* x x))))
 (let ((?x465 (* y y)))
 (let ((?x710 (* 24 ?x465)))
 (let ((?x1120 (+ (* 216 (* x00 y00)) (* 108 (* y x)) (* 36 (* x00 z00)) (* (- 2) (* z00 z00 z00 x)) (* 18 (* z00 z00 x)) (* (- 12) (* y00 y00 z00)) (* (- 1) (* y00 y00 z00 z00)) ?x710 ?x715 ?x767 (* 18 (* y00 z00 y)) (* 24 (* y00 z00)) (* (- 120) (* y00 y)) (* (- 24) (* z00 y)) ?x897 (* (- 6) (* z00 y y)) ?x962 (* (- 12) (* y00 y y)) (* (- 36) (* x00 y00 z00)) (* (- 108) (* x00 y)) (* (- 18) (* x00 z00 z00)) (* (- 216) (* x00 x)) ?x196 (* 2 (* x00 z00 z00 z00)) (* (- 216) (* y00 x)) (* z00 z00 y y) (* (- 10) (* y00 z00 z00)) (* (- 36) (* z00 x)) (* 36 (* y00 z00 x)) (* 10 (* z00 z00 y)) ?x1209 (* (- 1) (* z00 z00 z00 y)))))
 (let (($x1114 (= ?x1120 0)))
 (let ((?x74 (* 108 x00)))
 (let ((?x859 (* (- 72) y)))
 (let ((?x67 (* 72 y00)))
 (let ((?x858 (* (- 108) x)))
 (let ((?x438 (* x00 z)))
 (let ((?x1363 (* (- 18) ?x438)))
 (let ((?x695 (* 36 ?x491)))
 (let ((?x605 (* z y)))
 (let ((?x822 (* 12 ?x605)))
 (let ((?x334 (* z00 y)))
 (let ((?x280 (* (- 6) ?x334)))
 (let ((?x803 (* y00 z00)))
 (let ((?x444 (* 6 ?x803)))
 (let ((?x566 (* y00 z)))
 (let ((?x395 (* (- 12) ?x566)))
 (let ((?x809 (* y00 z00 y)))
 (let ((?x113 (* y00 y00 z00)))
 (let ((?x592 (* z x)))
 (let ((?x1359 (* 18 ?x592)))
 (let ((?x244 (+ (* 18 (* x00 y00)) (* 18 (* y x)) ?x1359 (* 3 (* z00 z00 x)) ?x113 (* (- 3) (* x00 z00 z)) ?x809 ?x395 ?x444 (* (- 36) (* y00 y)) ?x280 ?x822 (* 3 (* z00 z x)) (* (- 2) (* z00 y y)) ?x695 ?x1363 (* (- 1) (* z y y)) (* (- 18) (* x00 y)) (* (- 3) (* x00 z00 z00)) ?x858 ?x67 (* (- 18) (* y00 x)) ?x859 ?x74 (* (- 1) (* y00 z y)) (* (- 3) (* y00 z00 z00)) (* 2 (* y00 y00 z)) (* 3 (* z00 z00 y)))))
 (let ((?x1173 (* z00 z00 y)))
 (let ((?x335 (* 6 ?x334)))
 (let ((?x732 (* (- 6) ?x803)))
 (let ((?x1364 (* 24 ?x491)))
 (let ((?x532 (* y00 z00 z)))
 (let ((?x1112 (+ ?x532 ?x822 ?x1359 (* (- 18) (* x00 z00)) (* (- 12) ?x465) ?x1364 ?x1363 ?x395 ?x732 (* (- 12) (* y00 y)) ?x858 ?x67 ?x335 ?x859 ?x74 (* (- 1) (* y00 z00 z00)) (* 18 (* z00 x)) (* (- 1) (* z00 z y)) ?x1173)))
 (let ((?x581 (* 12 ?x566)))
 (let ((?x1132 (* (- 6) ?x283)))
 (let ((?x55 (* z00 z00 z00)))
 (let ((?x876 (+ (* 6 ?x605) ?x55 ?x1132 ?x581 (* (- 18) ?x803) ?x858 ?x67 (* 6 (* z00 z)) ?x859 ?x74 (* (- 1) (* z00 z00 z)))))
 (let ((?x50 (* z z)))
 (let ((?x355 (* (- 1) ?x50)))
 (let ((?x353 (* (- 6) z00)))
 (let ((?x46 (* 6 z)))
 (let ((?x45 (* 12 y)))
 (let ((?x354 (* (- 12) y00)))
 (and (= (+ z (* (- 1) z00) (* (- 6) n) (* 6 n00)) 0) (= (+ ?x283 ?x354 ?x45 ?x46 ?x353 ?x355) 0) (= ?x876 0) (= ?x1112 0) (= ?x244 0) $x1114 $x1068)))))))))))))))))))))))))))))))))))))))))))))))))))))))))))) :qid k!38))
 ))
 (let ((?x578 (lambda ((x Int) (y Int) (z Int) (n Int) )(let ((?x283 (* z00 z00)))
 (let ((?x284 (* (- 1) ?x283)))
 (let ((?x50 (* z z)))
 (let ((?x43 (* 12 y00)))
 (let ((?x49 (* 6 z00)))
 (let ((?x329 (* (- 6) z)))
 (let ((?x307 (* (- 12) y)))
 (let ((?x345 (+ ?x307 ?x329 ?x49 ?x43 ?x50 ?x284)))
 (let ((?x224 (+ x y)))
 (let ((?x215 (+ y z)))
 (let ((?x672 (+ 6 z)))
 (let ((?x936 (+ 1 n)))
 (let ((?x622 (* ?x936 ?x936 ?x936 ?x936 ?x936 ?x672 ?x672 ?x672 ?x672 ?x672 ?x672 ?x672 ?x672 ?x672 ?x215 ?x215 ?x215 ?x215 ?x215 ?x215 ?x215 ?x215 ?x224 ?x224 ?x224 ?x224 ?x345)))
 (let ((?x1209 (* 108 (* x00 x00))))
 (let ((?x1106 (* 2 (* z00 z00 z00 x00))))
 (let ((?x1102 (* z00 z00 z00 y00)))
 (let ((?x1012 (* (- 36) (* z00 y00 x00))))
 (let ((?x897 (* 16 (* y00 y00 y00))))
 (let ((?x811 (* z00 z00 x00)))
 (let ((?x1062 (* (- 18) ?x811)))
 (let ((?x767 (* (- 4) (* y y y))))
 (let ((?x715 (* 108 (* x x))))
 (let ((?x683 (* (- 1) (* z00 z00 y00 y00))))
 (let ((?x625 (* z00 z00 y00)))
 (let ((?x1163 (* (- 10) ?x625)))
 (let ((?x600 (* z00 y00 y00)))
 (let ((?x635 (* (- 12) ?x600)))
 (let ((?x491 (* y00 y00)))
 (let ((?x962 (* 96 ?x491)))
 (let ((?x465 (* y y)))
 (let ((?x710 (* 24 ?x465)))
 (let ((?x461 (* z00 x00)))
 (let ((?x379 (* 36 ?x461)))
 (let ((?x424 (* z00 y00)))
 (let ((?x789 (* 24 ?x424)))
 (let ((?x371 (* y00 x00)))
 (let ((?x362 (* 216 ?x371)))
 (let ((?x201 (* y y z00 z00)))
 (let ((?x1229 (+ (* 10 (* y z00 z00)) ?x201 (* (- 1) (* y z00 z00 z00)) ?x362 (* (- 2) (* x z00 z00 z00)) (* 108 (* x y)) ?x789 ?x379 ?x710 ?x962 (* (- 120) (* y y00)) (* 18 (* x z00 z00)) (* (- 24) (* y z00)) ?x635 ?x1163 (* (- 36) (* x z00)) (* 18 (* y z00 y00)) ?x683 ?x715 ?x767 (* (- 6) (* y y z00)) (* (- 108) (* y x00)) ?x1062 (* (- 216) (* x y00)) ?x897 (* (- 12) (* y y y00)) ?x1012 (* (- 216) (* x x00)) ?x1102 ?x1106 (* 36 (* x z00 y00)) ?x1209)))
 (let (($x1234 (= ?x1229 0)))
 (let ((?x812 (* 3 ?x811)))
 (let ((?x874 (* 3 ?x625)))
 (let ((?x607 (* (- 1) ?x600)))
 (let ((?x537 (* 18 (* z x00))))
 (let ((?x794 (* (- 36) ?x491)))
 (let ((?x699 (* (- 6) ?x424)))
 (let ((?x398 (* z y00)))
 (let ((?x399 (* 12 ?x398)))
 (let ((?x432 (* (- 18) (* x z))))
 (let ((?x372 (* (- 18) ?x371)))
 (let ((?x367 (* y z)))
 (let ((?x391 (* (- 12) ?x367)))
 (let ((?x135 (* y y z)))
 (let ((?x503 (* (- 108) x00)))
 (let ((?x446 (* (- 72) y00)))
 (let ((?x71 (* 72 y)))
 (let ((?x64 (* 108 x)))
 (let ((?x930 (+ ?x64 ?x71 ?x446 ?x503 (* (- 3) (* y z00 z00)) ?x135 ?x391 ?x372 (* (- 18) (* x y)) ?x432 ?x399 ?x699 ?x794 ?x537 (* 36 (* y y00)) (* (- 3) (* x z00 z00)) (* 6 (* y z00)) ?x607 ?x874 (* 3 (* z z00 x00)) (* (- 1) (* y z00 y00)) (* (- 3) (* x z z00)) (* 2 (* y y z00)) (* 18 (* y x00)) ?x812 (* 18 (* x y00)) (* y z y00) (* (- 2) (* z y00 y00)))))
 (let (($x937 (= ?x930 0)))
 (let ((?x520 (* (- 24) ?x491)))
 (let ((?x468 (* 12 ?x465)))
 (let ((?x462 (* 18 ?x461)))
 (let ((?x540 (* 6 ?x424)))
 (let ((?x103 (* y z z00)))
 (let ((?x679 (+ ?x64 ?x71 ?x446 ?x503 ?x103 (* (- 1) (* y z00 z00)) (* (- 1) (* z z00 y00)) ?x391 ?x432 ?x399 ?x540 ?x462 ?x468 ?x520 ?x537 (* 12 (* y y00)) (* (- 6) (* y z00)) ?x625 (* (- 18) (* x z00)))))
 (let (($x684 (= ?x679 0)))
 (let ((?x425 (* 18 ?x424)))
 (let ((?x387 (* 6 ?x283)))
 (let ((?x76 (* z z00 z00)))
 (let ((?x55 (* z00 z00 z00)))
 (let ((?x376 (* (- 1) ?x55)))
 (let ((?x519 (+ ?x64 ?x71 ?x446 ?x376 ?x503 ?x76 ?x387 (* (- 6) ?x367) (* (- 12) ?x398) ?x425 (* (- 6) (* z z00)))))
 (let (($x524 (= ?x519 0)))
 (let ((?x355 (* (- 1) ?x50)))
 (let ((?x354 (* (- 12) y00)))
 (let ((?x353 (* (- 6) z00)))
 (let ((?x46 (* 6 z)))
 (let ((?x45 (* 12 y)))
 (let (($x357 (= (+ ?x45 ?x46 ?x353 ?x354 ?x355 ?x283) 0)))
 (let (($x275 (= (+ z (* (- 6) n) (* (- 1) z00) (* 6 n00)) 0)))
 (let (($x433 (and $x275 $x357 $x524 $x684 $x937 $x1234 (not (= ?x622 0)))))
 (let ((?x933 (* ?x936 ?x936 ?x936 ?x936 ?x936 ?x672 ?x672 ?x672 ?x672 ?x672 ?x672 ?x672 ?x672 ?x672 ?x215 ?x215 ?x215 ?x215 ?x215 ?x215 ?x215 ?x215 ?x224 ?x224 ?x224 ?x224 (+ (- 36) ?x284 ?x43 ?x307 (* (- 18) z) ?x49 (* ?x672 ?x672)))))
 (let (($x1068 (not (= ?x933 0))))
 (let ((?x196 (* y00 z00 z00 z00)))
 (let ((?x1120 (+ (* 216 (* x00 y00)) (* 108 (* y x)) (* 36 (* x00 z00)) (* (- 2) (* z00 z00 z00 x)) (* 18 (* z00 z00 x)) (* (- 12) (* y00 y00 z00)) (* (- 1) (* y00 y00 z00 z00)) ?x710 ?x715 ?x767 (* 18 (* y00 z00 y)) (* 24 (* y00 z00)) (* (- 120) (* y00 y)) (* (- 24) (* z00 y)) ?x897 (* (- 6) (* z00 y y)) ?x962 (* (- 12) (* y00 y y)) (* (- 36) (* x00 y00 z00)) (* (- 108) (* x00 y)) (* (- 18) (* x00 z00 z00)) (* (- 216) (* x00 x)) ?x196 (* 2 (* x00 z00 z00 z00)) (* (- 216) (* y00 x)) (* z00 z00 y y) (* (- 10) (* y00 z00 z00)) (* (- 36) (* z00 x)) (* 36 (* y00 z00 x)) (* 10 (* z00 z00 y)) ?x1209 (* (- 1) (* z00 z00 z00 y)))))
 (let (($x1114 (= ?x1120 0)))
 (let ((?x74 (* 108 x00)))
 (let ((?x859 (* (- 72) y)))
 (let ((?x67 (* 72 y00)))
 (let ((?x858 (* (- 108) x)))
 (let ((?x438 (* x00 z)))
 (let ((?x1363 (* (- 18) ?x438)))
 (let ((?x695 (* 36 ?x491)))
 (let ((?x605 (* z y)))
 (let ((?x822 (* 12 ?x605)))
 (let ((?x334 (* z00 y)))
 (let ((?x280 (* (- 6) ?x334)))
 (let ((?x803 (* y00 z00)))
 (let ((?x444 (* 6 ?x803)))
 (let ((?x566 (* y00 z)))
 (let ((?x395 (* (- 12) ?x566)))
 (let ((?x809 (* y00 z00 y)))
 (let ((?x113 (* y00 y00 z00)))
 (let ((?x592 (* z x)))
 (let ((?x1359 (* 18 ?x592)))
 (let ((?x244 (+ (* 18 (* x00 y00)) (* 18 (* y x)) ?x1359 (* 3 (* z00 z00 x)) ?x113 (* (- 3) (* x00 z00 z)) ?x809 ?x395 ?x444 (* (- 36) (* y00 y)) ?x280 ?x822 (* 3 (* z00 z x)) (* (- 2) (* z00 y y)) ?x695 ?x1363 (* (- 1) (* z y y)) (* (- 18) (* x00 y)) (* (- 3) (* x00 z00 z00)) ?x858 ?x67 (* (- 18) (* y00 x)) ?x859 ?x74 (* (- 1) (* y00 z y)) (* (- 3) (* y00 z00 z00)) (* 2 (* y00 y00 z)) (* 3 (* z00 z00 y)))))
 (let ((?x1173 (* z00 z00 y)))
 (let ((?x335 (* 6 ?x334)))
 (let ((?x732 (* (- 6) ?x803)))
 (let ((?x1364 (* 24 ?x491)))
 (let ((?x532 (* y00 z00 z)))
 (let ((?x1112 (+ ?x532 ?x822 ?x1359 (* (- 18) (* x00 z00)) (* (- 12) ?x465) ?x1364 ?x1363 ?x395 ?x732 (* (- 12) (* y00 y)) ?x858 ?x67 ?x335 ?x859 ?x74 (* (- 1) (* y00 z00 z00)) (* 18 (* z00 x)) (* (- 1) (* z00 z y)) ?x1173)))
 (let ((?x581 (* 12 ?x566)))
 (let ((?x1132 (* (- 6) ?x283)))
 (let ((?x876 (+ (* 6 ?x605) ?x55 ?x1132 ?x581 (* (- 18) ?x803) ?x858 ?x67 (* 6 (* z00 z)) ?x859 ?x74 (* (- 1) (* z00 z00 z)))))
 (let (($x246 (and (= (+ z (* (- 1) z00) (* (- 6) n) (* 6 n00)) 0) (= (+ ?x283 ?x354 ?x45 ?x46 ?x353 ?x355) 0) (= ?x876 0) (= ?x1112 0) (= ?x244 0) $x1114 $x1068)))
 (rewrite (= $x246 $x433)))))))))))))))))))))))))))))))))))))))))))))))))))))))))))))))))))))))))))))))))))))))))))))))))))))))))))))))))))))))
 ))
 (let (($x469 (exists ((x Int) (y Int) (z Int) (n Int) )(! (let ((?x49 (* 6 z00)))
 (let ((?x307 (* (- 12) y)))
 (let ((?x43 (* 12 y00)))
 (let ((?x283 (* z00 z00)))
 (let ((?x284 (* (- 1) ?x283)))
 (let ((?x1067 (+ (- 36) ?x284 ?x43 ?x307 (* (- 18) z) ?x49 (* (+ 6 z) (+ 6 z)))))
 (let ((?x224 (+ x y)))
 (let ((?x215 (+ y z)))
 (let ((?x672 (+ 6 z)))
 (let ((?x936 (+ 1 n)))
 (let ((?x933 (* ?x936 ?x936 ?x936 ?x936 ?x936 ?x672 ?x672 ?x672 ?x672 ?x672 ?x672 ?x672 ?x672 ?x672 ?x215 ?x215 ?x215 ?x215 ?x215 ?x215 ?x215 ?x215 ?x224 ?x224 ?x224 ?x224 ?x1067)))
 (let (($x1068 (not (= ?x933 0))))
 (let ((?x1209 (* 108 (* x00 x00))))
 (let ((?x196 (* y00 z00 z00 z00)))
 (let ((?x491 (* y00 y00)))
 (let ((?x962 (* 96 ?x491)))
 (let ((?x897 (* 16 (* y00 y00 y00))))
 (let ((?x767 (* (- 4) (* y y y))))
 (let ((?x715 (* 108 (* x x))))
 (let ((?x465 (* y y)))
 (let ((?x710 (* 24 ?x465)))
 (let ((?x1120 (+ (* 216 (* x00 y00)) (* 108 (* y x)) (* 36 (* x00 z00)) (* (- 2) (* z00 z00 z00 x)) (* 18 (* z00 z00 x)) (* (- 12) (* y00 y00 z00)) (* (- 1) (* y00 y00 z00 z00)) ?x710 ?x715 ?x767 (* 18 (* y00 z00 y)) (* 24 (* y00 z00)) (* (- 120) (* y00 y)) (* (- 24) (* z00 y)) ?x897 (* (- 6) (* z00 y y)) ?x962 (* (- 12) (* y00 y y)) (* (- 36) (* x00 y00 z00)) (* (- 108) (* x00 y)) (* (- 18) (* x00 z00 z00)) (* (- 216) (* x00 x)) ?x196 (* 2 (* x00 z00 z00 z00)) (* (- 216) (* y00 x)) (* z00 z00 y y) (* (- 10) (* y00 z00 z00)) (* (- 36) (* z00 x)) (* 36 (* y00 z00 x)) (* 10 (* z00 z00 y)) ?x1209 (* (- 1) (* z00 z00 z00 y)))))
 (let (($x1114 (= ?x1120 0)))
 (let ((?x264 (* y00 z y)))
 (let ((?x503 (* (- 108) x00)))
 (let ((?x71 (* 72 y)))
 (let ((?x446 (* (- 72) y00)))
 (let ((?x64 (* 108 x)))
 (let ((?x654 (* z y y)))
 (let ((?x438 (* x00 z)))
 (let ((?x441 (* 18 ?x438)))
 (let ((?x794 (* (- 36) ?x491)))
 (let ((?x605 (* z y)))
 (let ((?x867 (* (- 12) ?x605)))
 (let ((?x334 (* z00 y)))
 (let ((?x335 (* 6 ?x334)))
 (let ((?x803 (* y00 z00)))
 (let ((?x732 (* (- 6) ?x803)))
 (let ((?x566 (* y00 z)))
 (let ((?x581 (* 12 ?x566)))
 (let ((?x592 (* z x)))
 (let ((?x883 (* (- 18) ?x592)))
 (let ((?x1235 (+ (* (- 18) (* x00 y00)) (* (- 18) (* y x)) ?x883 (* (- 3) (* z00 z00 x)) (* (- 1) (* y00 y00 z00)) (* 3 (* x00 z00 z)) (* (- 1) (* y00 z00 y)) ?x581 ?x732 (* 36 (* y00 y)) ?x335 ?x867 (* (- 3) (* z00 z x)) (* 2 (* z00 y y)) ?x794 ?x441 ?x654 (* 18 (* x00 y)) (* 3 (* x00 z00 z00)) ?x64 ?x446 (* 18 (* y00 x)) ?x71 ?x503 ?x264 (* 3 (* y00 z00 z00)) (* (- 2) (* y00 y00 z)) (* (- 3) (* z00 z00 y)))))
 (let ((?x1156 (* z00 z y)))
 (let ((?x99 (* y00 z00 z00)))
 (let ((?x280 (* (- 6) ?x334)))
 (let ((?x444 (* 6 ?x803)))
 (let ((?x520 (* (- 24) ?x491)))
 (let ((?x468 (* 12 ?x465)))
 (let ((?x1098 (+ (* (- 1) (* y00 z00 z)) ?x867 ?x883 (* 18 (* x00 z00)) ?x468 ?x520 ?x441 ?x581 ?x444 (* 12 (* y00 y)) ?x64 ?x446 ?x280 ?x71 ?x503 ?x99 (* (- 18) (* z00 x)) ?x1156 (* (- 1) (* z00 z00 y)))))
 (let ((?x621 (* z00 z00 z)))
 (let ((?x395 (* (- 12) ?x566)))
 (let ((?x387 (* 6 ?x283)))
 (let ((?x55 (* z00 z00 z00)))
 (let ((?x376 (* (- 1) ?x55)))
 (let ((?x555 (+ (* (- 6) ?x605) ?x376 ?x387 ?x395 (* 18 ?x803) ?x64 ?x446 (* (- 6) (* z00 z)) ?x71 ?x503 ?x621)))
 (and (= (+ (* (- 1) z) z00 (* 6 n) (* (- 6) n00)) 0) (= (+ ?x284 ?x43 ?x307 (* (- 6) z) ?x49 (* z z)) 0) (= ?x555 0) (= ?x1098 0) (= ?x1235 0) $x1114 $x1068))))))))))))))))))))))))))))))))))))))))))))))))))))))))) :qid k!38))
 ))
 (let ((?x245 (lambda ((x Int) (y Int) (z Int) (n Int) )(let ((?x49 (* 6 z00)))
 (let ((?x307 (* (- 12) y)))
 (let ((?x43 (* 12 y00)))
 (let ((?x283 (* z00 z00)))
 (let ((?x284 (* (- 1) ?x283)))
 (let ((?x1067 (+ (- 36) ?x284 ?x43 ?x307 (* (- 18) z) ?x49 (* (+ 6 z) (+ 6 z)))))
 (let ((?x224 (+ x y)))
 (let ((?x215 (+ y z)))
 (let ((?x672 (+ 6 z)))
 (let ((?x936 (+ 1 n)))
 (let ((?x933 (* ?x936 ?x936 ?x936 ?x936 ?x936 ?x672 ?x672 ?x672 ?x672 ?x672 ?x672 ?x672 ?x672 ?x672 ?x215 ?x215 ?x215 ?x215 ?x215 ?x215 ?x215 ?x215 ?x224 ?x224 ?x224 ?x224 ?x1067)))
 (let (($x1068 (not (= ?x933 0))))
 (let ((?x1209 (* 108 (* x00 x00))))
 (let ((?x196 (* y00 z00 z00 z00)))
 (let ((?x491 (* y00 y00)))
 (let ((?x962 (* 96 ?x491)))
 (let ((?x897 (* 16 (* y00 y00 y00))))
 (let ((?x767 (* (- 4) (* y y y))))
 (let ((?x715 (* 108 (* x x))))
 (let ((?x465 (* y y)))
 (let ((?x710 (* 24 ?x465)))
 (let ((?x1120 (+ (* 216 (* x00 y00)) (* 108 (* y x)) (* 36 (* x00 z00)) (* (- 2) (* z00 z00 z00 x)) (* 18 (* z00 z00 x)) (* (- 12) (* y00 y00 z00)) (* (- 1) (* y00 y00 z00 z00)) ?x710 ?x715 ?x767 (* 18 (* y00 z00 y)) (* 24 (* y00 z00)) (* (- 120) (* y00 y)) (* (- 24) (* z00 y)) ?x897 (* (- 6) (* z00 y y)) ?x962 (* (- 12) (* y00 y y)) (* (- 36) (* x00 y00 z00)) (* (- 108) (* x00 y)) (* (- 18) (* x00 z00 z00)) (* (- 216) (* x00 x)) ?x196 (* 2 (* x00 z00 z00 z00)) (* (- 216) (* y00 x)) (* z00 z00 y y) (* (- 10) (* y00 z00 z00)) (* (- 36) (* z00 x)) (* 36 (* y00 z00 x)) (* 10 (* z00 z00 y)) ?x1209 (* (- 1) (* z00 z00 z00 y)))))
 (let (($x1114 (= ?x1120 0)))
 (let ((?x74 (* 108 x00)))
 (let ((?x859 (* (- 72) y)))
 (let ((?x67 (* 72 y00)))
 (let ((?x858 (* (- 108) x)))
 (let ((?x438 (* x00 z)))
 (let ((?x1363 (* (- 18) ?x438)))
 (let ((?x695 (* 36 ?x491)))
 (let ((?x605 (* z y)))
 (let ((?x822 (* 12 ?x605)))
 (let ((?x334 (* z00 y)))
 (let ((?x280 (* (- 6) ?x334)))
 (let ((?x803 (* y00 z00)))
 (let ((?x444 (* 6 ?x803)))
 (let ((?x566 (* y00 z)))
 (let ((?x395 (* (- 12) ?x566)))
 (let ((?x809 (* y00 z00 y)))
 (let ((?x113 (* y00 y00 z00)))
 (let ((?x592 (* z x)))
 (let ((?x1359 (* 18 ?x592)))
 (let ((?x244 (+ (* 18 (* x00 y00)) (* 18 (* y x)) ?x1359 (* 3 (* z00 z00 x)) ?x113 (* (- 3) (* x00 z00 z)) ?x809 ?x395 ?x444 (* (- 36) (* y00 y)) ?x280 ?x822 (* 3 (* z00 z x)) (* (- 2) (* z00 y y)) ?x695 ?x1363 (* (- 1) (* z y y)) (* (- 18) (* x00 y)) (* (- 3) (* x00 z00 z00)) ?x858 ?x67 (* (- 18) (* y00 x)) ?x859 ?x74 (* (- 1) (* y00 z y)) (* (- 3) (* y00 z00 z00)) (* 2 (* y00 y00 z)) (* 3 (* z00 z00 y)))))
 (let ((?x1173 (* z00 z00 y)))
 (let ((?x335 (* 6 ?x334)))
 (let ((?x732 (* (- 6) ?x803)))
 (let ((?x1364 (* 24 ?x491)))
 (let ((?x532 (* y00 z00 z)))
 (let ((?x1112 (+ ?x532 ?x822 ?x1359 (* (- 18) (* x00 z00)) (* (- 12) ?x465) ?x1364 ?x1363 ?x395 ?x732 (* (- 12) (* y00 y)) ?x858 ?x67 ?x335 ?x859 ?x74 (* (- 1) (* y00 z00 z00)) (* 18 (* z00 x)) (* (- 1) (* z00 z y)) ?x1173)))
 (let ((?x581 (* 12 ?x566)))
 (let ((?x1132 (* (- 6) ?x283)))
 (let ((?x55 (* z00 z00 z00)))
 (let ((?x876 (+ (* 6 ?x605) ?x55 ?x1132 ?x581 (* (- 18) ?x803) ?x858 ?x67 (* 6 (* z00 z)) ?x859 ?x74 (* (- 1) (* z00 z00 z)))))
 (let ((?x50 (* z z)))
 (let ((?x355 (* (- 1) ?x50)))
 (let ((?x353 (* (- 6) z00)))
 (let ((?x46 (* 6 z)))
 (let ((?x45 (* 12 y)))
 (let ((?x354 (* (- 12) y00)))
 (let (($x246 (and (= (+ z (* (- 1) z00) (* (- 6) n) (* 6 n00)) 0) (= (+ ?x283 ?x354 ?x45 ?x46 ?x353 ?x355) 0) (= ?x876 0) (= ?x1112 0) (= ?x244 0) $x1114 $x1068)))
 (let ((?x264 (* y00 z y)))
 (let ((?x503 (* (- 108) x00)))
 (let ((?x71 (* 72 y)))
 (let ((?x446 (* (- 72) y00)))
 (let ((?x64 (* 108 x)))
 (let ((?x654 (* z y y)))
 (let ((?x441 (* 18 ?x438)))
 (let ((?x794 (* (- 36) ?x491)))
 (let ((?x867 (* (- 12) ?x605)))
 (let ((?x883 (* (- 18) ?x592)))
 (let ((?x1235 (+ (* (- 18) (* x00 y00)) (* (- 18) (* y x)) ?x883 (* (- 3) (* z00 z00 x)) (* (- 1) ?x113) (* 3 (* x00 z00 z)) (* (- 1) ?x809) ?x581 ?x732 (* 36 (* y00 y)) ?x335 ?x867 (* (- 3) (* z00 z x)) (* 2 (* z00 y y)) ?x794 ?x441 ?x654 (* 18 (* x00 y)) (* 3 (* x00 z00 z00)) ?x64 ?x446 (* 18 (* y00 x)) ?x71 ?x503 ?x264 (* 3 (* y00 z00 z00)) (* (- 2) (* y00 y00 z)) (* (- 3) ?x1173))))
 (let ((?x1156 (* z00 z y)))
 (let ((?x99 (* y00 z00 z00)))
 (let ((?x520 (* (- 24) ?x491)))
 (let ((?x468 (* 12 ?x465)))
 (let ((?x1098 (+ (* (- 1) ?x532) ?x867 ?x883 (* 18 (* x00 z00)) ?x468 ?x520 ?x441 ?x581 ?x444 (* 12 (* y00 y)) ?x64 ?x446 ?x280 ?x71 ?x503 ?x99 (* (- 18) (* z00 x)) ?x1156 (* (- 1) ?x1173))))
 (let ((?x621 (* z00 z00 z)))
 (let ((?x387 (* 6 ?x283)))
 (let ((?x376 (* (- 1) ?x55)))
 (let ((?x555 (+ (* (- 6) ?x605) ?x376 ?x387 ?x395 (* 18 ?x803) ?x64 ?x446 (* (- 6) (* z00 z)) ?x71 ?x503 ?x621)))
 (let (($x981 (and (= (+ (* (- 1) z) z00 (* 6 n) (* (- 6) n00)) 0) (= (+ ?x284 ?x43 ?x307 (* (- 6) z) ?x49 ?x50) 0) (= ?x555 0) (= ?x1098 0) (= ?x1235 0) $x1114 $x1068)))
 (rewrite (= $x981 $x246))))))))))))))))))))))))))))))))))))))))))))))))))))))))))))))))))))))))))))))))))))
 ))
 (let (($x230 (exists ((x Int) (y Int) (z Int) (n Int) )(! (let ((?x217 (+ z 6)))
 (let ((?x215 (+ y z)))
 (let ((?x224 (+ x y)))
 (let ((?x223 (+ n 1)))
 (let ((?x49 (* 6 z00)))
 (let ((?x220 (- (- (+ (* (- 1) z00 z00) (* 12 y00)) (* 12 ?x215)) (* 6 ?x217))))
 (let ((?x225 (* (+ ?x220 ?x49 (* ?x217 ?x217)) ?x223 ?x223 ?x224 ?x215 ?x215 ?x215 ?x217 ?x217 ?x217 ?x223 ?x223 ?x224 ?x215 ?x215 ?x215 ?x217 ?x217 ?x217 ?x223 ?x224 ?x224 ?x215 ?x215 ?x217 ?x217 ?x217)))
 (let ((?x212 (* y z00 z00 z00)))
 (let ((?x201 (* y y z00 z00)))
 (let ((?x196 (* y00 z00 z00 z00)))
 (let ((?x161 (* y00 y00 z00 z00)))
 (let ((?x157 (- (+ (* 216 x00 y00) (* 108 x y) (* 36 x00 z00)) (* 2 x z00 z00 z00))))
 (let ((?x163 (- (- (+ ?x157 (* 18 x z00 z00)) (* 12 y00 y00 z00)) ?x161)))
 (let ((?x169 (- (+ ?x163 (* 24 y y) (* 108 x x)) (* 4 y y y))))
 (let ((?x176 (- (+ ?x169 (* 18 y y00 z00) (* 24 y00 z00)) (* 120 y y00))))
 (let ((?x182 (- (+ (- ?x176 (* 24 y z00)) (* 16 y00 y00 y00)) (* 6 y y z00))))
 (let ((?x192 (- (- (+ ?x182 (* 96 y00 y00)) (* 12 y y y00)) (* 36 x00 y00 z00))))
 (let ((?x195 (- (- (- ?x192 (* 108 x00 y)) (* 18 x00 z00 z00)) (* 216 x x00))))
 (let ((?x200 (- (+ ?x195 ?x196 (* 2 x00 z00 z00 z00)) (* 216 x y00))))
 (let ((?x207 (- (- (+ ?x200 ?x201) (* 10 y00 z00 z00)) (* 36 x z00))))
 (let ((?x211 (+ ?x207 (* 36 x y00 z00) (* 10 y z00 z00) (* 108 x00 x00))))
 (let ((?x74 (* 108 x00)))
 (let ((?x71 (* 72 y)))
 (let ((?x67 (* 72 y00)))
 (let ((?x64 (* 108 x)))
 (let ((?x135 (* y y z)))
 (let ((?x90 (* 18 x00 z)))
 (let ((?x80 (* 12 y z)))
 (let ((?x94 (* 6 y z00)))
 (let ((?x91 (* 6 y00 z00)))
 (let ((?x59 (* 12 y00 z)))
 (let ((?x113 (* y00 y00 z00)))
 (let ((?x81 (* 18 x z)))
 (let ((?x116 (- (- (- (* (- 18) x00 y00) (* 18 x y)) ?x81) (* 3 x z00 z00))))
 (let ((?x121 (- (+ (- ?x116 ?x113) (* 3 x00 z z00)) (* y y00 z00))))
 (let ((?x129 (- (- (+ (- (+ ?x121 ?x59) ?x91) (* 36 y y00) ?x94) ?x80) (* 3 x z z00))))
 (let ((?x138 (+ (- (+ ?x129 (* 2 y y z00)) (* 36 y00 y00)) ?x90 ?x135 (* 18 x00 y) (* 3 x00 z00 z00) ?x64)))
 (let ((?x145 (+ (- (+ (- ?x138 ?x67) (* 18 x y00) ?x71) ?x74) (* y y00 z) (* 3 y00 z00 z00))))
 (let (($x150 (= (- (- ?x145 (* 2 y00 y00 z)) (* 3 y z00 z00)) 0)))
 (let ((?x105 (* y z00 z00)))
 (let ((?x103 (* y z z00)))
 (let ((?x99 (* y00 z00 z00)))
 (let ((?x86 (+ (- (- (* (- 1) y00 z z00) ?x80) ?x81) (* 18 x00 z00) (* 12 y y))))
 (let ((?x93 (+ (- ?x86 (* 24 y00 y00)) ?x90 ?x59 ?x91 (* 12 y y00) ?x64)))
 (let ((?x102 (- (+ (- (+ (- (- ?x93 ?x67) ?x94) ?x71) ?x74) ?x99) (* 18 x z00))))
 (let ((?x76 (* z z00 z00)))
 (let ((?x58 (+ (- (* (- 6) y z) (* z00 z00 z00)) (* 6 z00 z00))))
 (let ((?x70 (- (- (+ (- ?x58 ?x59) (* 18 y00 z00) ?x64) ?x67) (* 6 z z00))))
 (let ((?x50 (* z z)))
 (let ((?x46 (* 6 z)))
 (let ((?x48 (- (- (+ (* (- 1) z00 z00) (* 12 y00)) (* 12 y)) ?x46)))
 (let (($x39 (= (- (+ (* (- 1) z) z00 (* 6 n)) (* 6 n00)) 0)))
 (and $x39 (= (+ ?x48 ?x49 ?x50) 0) (= (+ (- (+ ?x70 ?x71) ?x74) ?x76) 0) (= (- (+ ?x102 ?x103) ?x105) 0) $x150 (= (- ?x211 ?x212) 0) (or (not (= ?x225 0)))))))))))))))))))))))))))))))))))))))))))))))))))))))) :qid k!38))
 ))
 (let ((?x485 (lambda ((x Int) (y Int) (z Int) (n Int) )(let ((?x49 (* 6 z00)))
 (let ((?x307 (* (- 12) y)))
 (let ((?x43 (* 12 y00)))
 (let ((?x283 (* z00 z00)))
 (let ((?x284 (* (- 1) ?x283)))
 (let ((?x1067 (+ (- 36) ?x284 ?x43 ?x307 (* (- 18) z) ?x49 (* (+ 6 z) (+ 6 z)))))
 (let ((?x224 (+ x y)))
 (let ((?x215 (+ y z)))
 (let ((?x672 (+ 6 z)))
 (let ((?x936 (+ 1 n)))
 (let ((?x933 (* ?x936 ?x936 ?x936 ?x936 ?x936 ?x672 ?x672 ?x672 ?x672 ?x672 ?x672 ?x672 ?x672 ?x672 ?x215 ?x215 ?x215 ?x215 ?x215 ?x215 ?x215 ?x215 ?x224 ?x224 ?x224 ?x224 ?x1067)))
 (let (($x1068 (not (= ?x933 0))))
 (let ((?x1209 (* 108 (* x00 x00))))
 (let ((?x196 (* y00 z00 z00 z00)))
 (let ((?x491 (* y00 y00)))
 (let ((?x962 (* 96 ?x491)))
 (let ((?x897 (* 16 (* y00 y00 y00))))
 (let ((?x767 (* (- 4) (* y y y))))
 (let ((?x715 (* 108 (* x x))))
 (let ((?x465 (* y y)))
 (let ((?x710 (* 24 ?x465)))
 (let ((?x1120 (+ (* 216 (* x00 y00)) (* 108 (* y x)) (* 36 (* x00 z00)) (* (- 2) (* z00 z00 z00 x)) (* 18 (* z00 z00 x)) (* (- 12) (* y00 y00 z00)) (* (- 1) (* y00 y00 z00 z00)) ?x710 ?x715 ?x767 (* 18 (* y00 z00 y)) (* 24 (* y00 z00)) (* (- 120) (* y00 y)) (* (- 24) (* z00 y)) ?x897 (* (- 6) (* z00 y y)) ?x962 (* (- 12) (* y00 y y)) (* (- 36) (* x00 y00 z00)) (* (- 108) (* x00 y)) (* (- 18) (* x00 z00 z00)) (* (- 216) (* x00 x)) ?x196 (* 2 (* x00 z00 z00 z00)) (* (- 216) (* y00 x)) (* z00 z00 y y) (* (- 10) (* y00 z00 z00)) (* (- 36) (* z00 x)) (* 36 (* y00 z00 x)) (* 10 (* z00 z00 y)) ?x1209 (* (- 1) (* z00 z00 z00 y)))))
 (let (($x1114 (= ?x1120 0)))
 (let ((?x264 (* y00 z y)))
 (let ((?x503 (* (- 108) x00)))
 (let ((?x71 (* 72 y)))
 (let ((?x446 (* (- 72) y00)))
 (let ((?x64 (* 108 x)))
 (let ((?x654 (* z y y)))
 (let ((?x438 (* x00 z)))
 (let ((?x441 (* 18 ?x438)))
 (let ((?x794 (* (- 36) ?x491)))
 (let ((?x605 (* z y)))
 (let ((?x867 (* (- 12) ?x605)))
 (let ((?x334 (* z00 y)))
 (let ((?x335 (* 6 ?x334)))
 (let ((?x803 (* y00 z00)))
 (let ((?x732 (* (- 6) ?x803)))
 (let ((?x566 (* y00 z)))
 (let ((?x581 (* 12 ?x566)))
 (let ((?x592 (* z x)))
 (let ((?x883 (* (- 18) ?x592)))
 (let ((?x1235 (+ (* (- 18) (* x00 y00)) (* (- 18) (* y x)) ?x883 (* (- 3) (* z00 z00 x)) (* (- 1) (* y00 y00 z00)) (* 3 (* x00 z00 z)) (* (- 1) (* y00 z00 y)) ?x581 ?x732 (* 36 (* y00 y)) ?x335 ?x867 (* (- 3) (* z00 z x)) (* 2 (* z00 y y)) ?x794 ?x441 ?x654 (* 18 (* x00 y)) (* 3 (* x00 z00 z00)) ?x64 ?x446 (* 18 (* y00 x)) ?x71 ?x503 ?x264 (* 3 (* y00 z00 z00)) (* (- 2) (* y00 y00 z)) (* (- 3) (* z00 z00 y)))))
 (let ((?x1156 (* z00 z y)))
 (let ((?x99 (* y00 z00 z00)))
 (let ((?x280 (* (- 6) ?x334)))
 (let ((?x444 (* 6 ?x803)))
 (let ((?x520 (* (- 24) ?x491)))
 (let ((?x468 (* 12 ?x465)))
 (let ((?x1098 (+ (* (- 1) (* y00 z00 z)) ?x867 ?x883 (* 18 (* x00 z00)) ?x468 ?x520 ?x441 ?x581 ?x444 (* 12 (* y00 y)) ?x64 ?x446 ?x280 ?x71 ?x503 ?x99 (* (- 18) (* z00 x)) ?x1156 (* (- 1) (* z00 z00 y)))))
 (let ((?x621 (* z00 z00 z)))
 (let ((?x395 (* (- 12) ?x566)))
 (let ((?x387 (* 6 ?x283)))
 (let ((?x55 (* z00 z00 z00)))
 (let ((?x376 (* (- 1) ?x55)))
 (let ((?x555 (+ (* (- 6) ?x605) ?x376 ?x387 ?x395 (* 18 ?x803) ?x64 ?x446 (* (- 6) (* z00 z)) ?x71 ?x503 ?x621)))
 (let (($x981 (and (= (+ (* (- 1) z) z00 (* 6 n) (* (- 6) n00)) 0) (= (+ ?x284 ?x43 ?x307 (* (- 6) z) ?x49 (* z z)) 0) (= ?x555 0) (= ?x1098 0) (= ?x1235 0) $x1114 $x1068)))
 (let ((?x217 (+ z 6)))
 (let ((?x223 (+ n 1)))
 (let ((?x220 (- (- (+ (* (- 1) z00 z00) ?x43) (* 12 ?x215)) (* 6 ?x217))))
 (let ((?x225 (* (+ ?x220 ?x49 (* ?x217 ?x217)) ?x223 ?x223 ?x224 ?x215 ?x215 ?x215 ?x217 ?x217 ?x217 ?x223 ?x223 ?x224 ?x215 ?x215 ?x215 ?x217 ?x217 ?x217 ?x223 ?x224 ?x224 ?x215 ?x215 ?x217 ?x217 ?x217)))
 (let ((?x212 (* y z00 z00 z00)))
 (let ((?x201 (* y y z00 z00)))
 (let ((?x161 (* y00 y00 z00 z00)))
 (let ((?x157 (- (+ (* 216 x00 y00) (* 108 x y) (* 36 x00 z00)) (* 2 x z00 z00 z00))))
 (let ((?x163 (- (- (+ ?x157 (* 18 x z00 z00)) (* 12 y00 y00 z00)) ?x161)))
 (let ((?x169 (- (+ ?x163 (* 24 y y) (* 108 x x)) (* 4 y y y))))
 (let ((?x176 (- (+ ?x169 (* 18 y y00 z00) (* 24 y00 z00)) (* 120 y y00))))
 (let ((?x182 (- (+ (- ?x176 (* 24 y z00)) (* 16 y00 y00 y00)) (* 6 y y z00))))
 (let ((?x192 (- (- (+ ?x182 (* 96 y00 y00)) (* 12 y y y00)) (* 36 x00 y00 z00))))
 (let ((?x195 (- (- (- ?x192 (* 108 x00 y)) (* 18 x00 z00 z00)) (* 216 x x00))))
 (let ((?x200 (- (+ ?x195 ?x196 (* 2 x00 z00 z00 z00)) (* 216 x y00))))
 (let ((?x207 (- (- (+ ?x200 ?x201) (* 10 y00 z00 z00)) (* 36 x z00))))
 (let ((?x211 (+ ?x207 (* 36 x y00 z00) (* 10 y z00 z00) (* 108 x00 x00))))
 (let ((?x74 (* 108 x00)))
 (let ((?x67 (* 72 y00)))
 (let ((?x135 (* y y z)))
 (let ((?x90 (* 18 x00 z)))
 (let ((?x80 (* 12 y z)))
 (let ((?x94 (* 6 y z00)))
 (let ((?x91 (* 6 y00 z00)))
 (let ((?x59 (* 12 y00 z)))
 (let ((?x113 (* y00 y00 z00)))
 (let ((?x81 (* 18 x z)))
 (let ((?x116 (- (- (- (* (- 18) x00 y00) (* 18 x y)) ?x81) (* 3 x z00 z00))))
 (let ((?x121 (- (+ (- ?x116 ?x113) (* 3 x00 z z00)) (* y y00 z00))))
 (let ((?x129 (- (- (+ (- (+ ?x121 ?x59) ?x91) (* 36 y y00) ?x94) ?x80) (* 3 x z z00))))
 (let ((?x138 (+ (- (+ ?x129 (* 2 y y z00)) (* 36 y00 y00)) ?x90 ?x135 (* 18 x00 y) (* 3 x00 z00 z00) ?x64)))
 (let ((?x145 (+ (- (+ (- ?x138 ?x67) (* 18 x y00) ?x71) ?x74) (* y y00 z) (* 3 y00 z00 z00))))
 (let (($x150 (= (- (- ?x145 (* 2 y00 y00 z)) (* 3 y z00 z00)) 0)))
 (let ((?x105 (* y z00 z00)))
 (let ((?x103 (* y z z00)))
 (let ((?x86 (+ (- (- (* (- 1) y00 z z00) ?x80) ?x81) (* 18 x00 z00) (* 12 y y))))
 (let ((?x93 (+ (- ?x86 (* 24 y00 y00)) ?x90 ?x59 ?x91 (* 12 y y00) ?x64)))
 (let ((?x102 (- (+ (- (+ (- (- ?x93 ?x67) ?x94) ?x71) ?x74) ?x99) (* 18 x z00))))
 (let ((?x76 (* z z00 z00)))
 (let ((?x60 (- (+ (- (* (- 6) y z) ?x55) (* 6 z00 z00)) ?x59)))
 (let ((?x70 (- (- (+ ?x60 (* 18 y00 z00) ?x64) ?x67) (* 6 z z00))))
 (let ((?x50 (* z z)))
 (let ((?x46 (* 6 z)))
 (let ((?x51 (+ (- (- (+ (* (- 1) z00 z00) ?x43) (* 12 y)) ?x46) ?x49 ?x50)))
 (let (($x39 (= (- (+ (* (- 1) z) z00 (* 6 n)) (* 6 n00)) 0)))
 (let (($x229 (and $x39 (= ?x51 0) (= (+ (- (+ ?x70 ?x71) ?x74) ?x76) 0) (= (- (+ ?x102 ?x103) ?x105) 0) $x150 (= (- ?x211 ?x212) 0) (or (not (= ?x225 0))))))
 (rewrite (= $x229 $x981))))))))))))))))))))))))))))))))))))))))))))))))))))))))))))))))))))))))))))))))))))))))))))))))))))))))))
 ))
 (let ((@x231 (asserted $x230)))
 (let ((@x1118 (mp (mp @x231 (quant-intro (proof-bind ?x485) (= $x230 $x469)) $x469) (rewrite (= $x469 $x469)) $x469)))
 (let ((@x1279 (mp (mp @x1118 (quant-intro (proof-bind ?x245) (= $x469 $x236)) $x236) (quant-intro (proof-bind ?x578) (= $x236 $x577)) $x577)))
 (let ((@x1260 (mp (mp~ @x1279 (sk (~ $x577 $x588)) $x588) (rewrite (= $x588 $x1232)) $x1232)))
 (let ((@x1000 (and-elim @x1260 $x863)))
 (let ((@x744 (unit-resolution ((_ th-lemma arith triangle-eq) (or (not $x863) $x701)) @x1000 $x701)))
 (let (($x682 (>= ?x382 0)))
 (let ((@x761 (unit-resolution ((_ th-lemma arith triangle-eq) (or (not $x863) $x682)) @x1000 $x682)))
 (let (($x1190 (not (<= ?x558 0))))
 (let (($x912 (>= ?x558 0)))
 (let ((@x1197 (unit-resolution ((_ th-lemma arith triangle-eq) (or $x848 $x1190 (not $x912))) (and-elim @x1260 $x1233) (or $x1190 (not $x912)))))
 (let ((@x1198 (unit-resolution @x1197 (lemma ((_ th-lemma arith farkas 1 1 1) (hypothesis (not $x912)) @x761 @x744 false) $x912) $x1190)))
 ((_ th-lemma arith farkas 1 1 1) @x1198 @x761 @x744 false)))))))))))))))))))))))))))))))))))))))))))))))))))))))))))))))))))))))))))))))))))))))))))))))))))))))))))))))))))))

(:added-eqs                 6
 :arith-assert-diseq        1
 :arith-assert-lower        10
 :arith-assert-upper        9
 :arith-conflicts           2
 :arith-eq-adapter          7
 :arith-num-rows            10
 :arith-pseudo-nonlinear    2
 :arith-tableau-max-columns 95
 :arith-tableau-max-rows    10
 :conflicts                 2
 :decisions                 1
 :del-clause                20
 :max-memory                3.88
 :memory                    3.29
 :mk-bool-var               27
 :mk-clause                 22
 :num-allocs                1353674
 :num-checks                1
 :propagations              14
 :rlimit-count              7000
 :time                      0.01
 :total-time                0.02)
